NAME : a280.1079.tour
COMMENT : Length = 1079
COMMENT : Found by LKH [Keld Helsgaun] Sat May 25 06:41:14 2013
TYPE : TOUR
DIMENSION : 56
TOUR_SECTION
280
3
277
6
9
11
272
16
133
19
22
26
29
124
123
34
36
37
46
45
57
68
67
65
116
83
76
77
94
93
170
172
174
161
175
177
182
183
191
193
197
198
145
140
265
264
259
258
253
212
214
225
226
228
246
243
-1
EOF
